HUN,8,6,698
0,26,5,28,3,27,4,28,1,23,2,21
4,24,3,26,5,23,0,25,1,22,2,22
1,21,3,27,4,27,2,28,5,24,0,26
4,24,5,28,1,27,2,30,3,24,0,21
4,30,5,23,0,29,2,25,3,26,1,30
4,25,5,30,3,28,0,29,1,26,2,22
2,22,0,29,1,30,4,23,3,24,5,25
0,24,4,28,3,29,1,30,2,24,5,22
